c FILE: BspGraphGross2.graph
c
c SOURCE: DAP2
c
p edge 200 2447
e 0 50
e 0 61
e 0 65
e 0 75
e 0 89
e 0 104
e 0 124
e 0 134
e 0 137
e 0 138
e 0 139
e 1 1
e 1 4
e 1 9
e 1 19
e 1 49
e 1 60
e 1 65
e 1 67
e 1 73
e 1 89
e 1 112
e 1 130
e 1 185
e 1 188
e 2 12
e 2 30
e 2 32
e 2 39
e 2 56
e 2 92
e 2 96
e 2 117
e 2 127
e 2 131
e 2 135
e 2 149
e 2 151
e 2 154
e 2 160
e 2 170
e 2 173
e 3 23
e 3 34
e 3 42
e 3 43
e 3 46
e 3 54
e 3 56
e 3 72
e 3 88
e 3 106
e 3 116
e 3 122
e 3 146
e 3 151
e 3 153
e 3 171
e 3 177
e 3 186
e 3 187
e 3 193
e 3 194
e 4 1
e 4 5
e 4 28
e 4 30
e 4 54
e 4 61
e 4 63
e 4 82
e 4 147
e 4 150
e 5 4
e 5 57
e 5 61
e 5 111
e 5 119
e 5 121
e 5 135
e 5 165
e 5 190
e 5 193
e 5 199
e 6 52
e 6 80
e 6 88
e 6 95
e 6 103
e 6 105
e 6 115
e 6 147
e 6 152
e 6 177
e 6 185
e 7 56
e 7 73
e 7 91
e 7 97
e 7 105
e 7 126
e 7 127
e 7 153
e 7 158
e 7 166
e 7 169
e 7 171
e 7 174
e 7 189
e 7 197
e 8 18
e 8 32
e 8 33
e 8 37
e 8 88
e 8 96
e 8 98
e 8 105
e 8 106
e 8 107
e 8 113
e 8 156
e 8 158
e 8 159
e 8 160
e 8 169
e 8 170
e 8 178
e 8 199
e 9 33
e 9 51
e 9 77
e 9 94
e 9 112
e 9 114
e 9 115
e 9 159
e 9 198
e 10 17
e 10 22
e 10 31
e 10 61
e 10 68
e 10 91
e 10 94
e 10 110
e 10 122
e 10 125
e 10 131
e 10 152
e 10 159
e 10 184
e 10 186
e 11 6
e 11 38
e 11 66
e 11 104
e 11 107
e 11 119
e 11 123
e 11 133
e 11 153
e 11 180
e 11 185
e 12 11
e 12 18
e 12 71
e 12 73
e 12 86
e 12 121
e 12 164
e 12 167
e 12 171
e 12 180
e 12 184
e 13 28
e 13 67
e 13 121
e 13 158
e 13 185
e 13 188
e 14 9
e 14 60
e 14 76
e 14 78
e 14 82
e 14 83
e 14 94
e 14 95
e 14 97
e 14 110
e 14 113
e 14 127
e 14 131
e 14 141
e 14 151
e 14 155
e 14 157
e 14 195
e 15 4
e 15 5
e 15 8
e 15 16
e 15 39
e 15 54
e 15 72
e 15 143
e 15 144
e 15 159
e 15 176
e 15 191
e 16 0
e 16 7
e 16 17
e 16 19
e 16 41
e 16 49
e 16 59
e 16 81
e 16 94
e 16 115
e 16 125
e 16 143
e 16 159
e 16 169
e 16 172
e 16 178
e 16 187
e 16 189
e 17 22
e 17 32
e 17 48
e 17 66
e 17 110
e 17 111
e 17 195
e 17 196
e 18 1
e 18 7
e 18 17
e 18 18
e 18 44
e 18 45
e 18 68
e 18 107
e 18 116
e 18 133
e 18 164
e 18 165
e 19 12
e 19 17
e 19 28
e 19 84
e 19 112
e 19 118
e 19 133
e 19 156
e 19 158
e 19 165
e 20 7
e 20 11
e 20 24
e 20 27
e 20 28
e 20 34
e 20 38
e 20 45
e 20 53
e 20 56
e 20 66
e 20 67
e 20 69
e 20 78
e 20 97
e 20 104
e 20 108
e 20 110
e 20 119
e 20 154
e 20 157
e 21 4
e 21 31
e 21 73
e 21 81
e 21 83
e 21 101
e 21 125
e 21 129
e 21 147
e 21 149
e 21 155
e 21 185
e 21 190
e 21 196
e 22 17
e 22 20
e 22 22
e 22 60
e 22 72
e 22 86
e 22 134
e 22 135
e 22 149
e 23 2
e 23 5
e 23 12
e 23 33
e 23 35
e 23 37
e 23 39
e 23 40
e 23 53
e 23 56
e 23 69
e 23 113
e 23 117
e 23 141
e 23 184
e 23 196
e 24 22
e 24 62
e 24 67
e 24 74
e 24 107
e 24 113
e 24 137
e 24 138
e 24 141
e 24 156
e 24 176
e 24 179
e 25 7
e 25 17
e 25 35
e 25 85
e 25 92
e 25 135
e 25 146
e 25 172
e 25 179
e 25 186
e 26 1
e 26 14
e 26 122
e 26 134
e 26 135
e 26 146
e 26 173
e 26 195
e 27 11
e 27 19
e 27 29
e 27 35
e 27 65
e 27 98
e 27 109
e 27 116
e 27 126
e 27 130
e 27 149
e 27 169
e 27 171
e 27 180
e 27 182
e 27 193
e 27 198
e 28 5
e 28 11
e 28 14
e 28 28
e 28 39
e 28 64
e 28 72
e 28 100
e 28 111
e 28 132
e 28 170
e 29 14
e 29 17
e 29 41
e 29 44
e 29 76
e 29 108
e 29 140
e 29 141
e 29 163
e 29 169
e 29 174
e 29 177
e 29 186
e 29 191
e 30 13
e 30 53
e 30 69
e 30 142
e 30 174
e 30 175
e 31 0
e 31 24
e 31 27
e 31 34
e 31 36
e 31 52
e 31 57
e 31 63
e 31 64
e 31 77
e 31 115
e 31 120
e 31 128
e 31 163
e 31 176
e 31 195
e 32 14
e 32 15
e 32 29
e 32 34
e 32 45
e 32 111
e 32 112
e 32 171
e 32 178
e 33 63
e 33 120
e 33 135
e 33 136
e 33 146
e 33 162
e 33 172
e 33 176
e 33 177
e 34 28
e 34 38
e 34 45
e 34 71
e 34 81
e 34 103
e 34 112
e 34 114
e 34 125
e 34 130
e 34 138
e 34 163
e 34 173
e 34 180
e 34 193
e 35 1
e 35 13
e 35 37
e 35 64
e 35 154
e 35 157
e 35 163
e 35 168
e 35 174
e 35 178
e 35 186
e 36 8
e 36 15
e 36 20
e 36 27
e 36 32
e 36 61
e 36 64
e 36 82
e 36 96
e 36 105
e 36 167
e 36 180
e 36 194
e 37 34
e 37 109
e 37 125
e 37 146
e 37 152
e 38 12
e 38 23
e 38 32
e 38 48
e 38 77
e 38 99
e 38 134
e 38 144
e 38 165
e 38 189
e 38 194
e 39 0
e 39 12
e 39 14
e 39 23
e 39 27
e 39 45
e 39 47
e 39 58
e 39 60
e 39 63
e 39 65
e 39 108
e 39 145
e 39 179
e 39 183
e 39 187
e 39 191
e 40 36
e 40 43
e 40 56
e 40 69
e 40 83
e 40 120
e 40 132
e 40 147
e 40 156
e 40 196
e 41 9
e 41 26
e 41 34
e 41 37
e 41 47
e 41 50
e 41 59
e 41 60
e 41 86
e 41 109
e 41 115
e 41 120
e 41 121
e 41 139
e 41 143
e 41 149
e 41 152
e 41 160
e 41 161
e 41 164
e 41 194
e 42 32
e 42 45
e 42 51
e 42 81
e 42 99
e 42 105
e 42 142
e 42 145
e 42 173
e 43 16
e 43 36
e 43 64
e 43 110
e 43 114
e 43 115
e 43 119
e 43 140
e 43 142
e 43 146
e 43 168
e 43 173
e 43 178
e 44 53
e 44 88
e 44 94
e 44 112
e 44 125
e 44 136
e 44 142
e 44 143
e 44 146
e 44 194
e 45 3
e 45 22
e 45 26
e 45 31
e 45 38
e 45 43
e 45 44
e 45 54
e 45 82
e 45 119
e 45 138
e 45 196
e 46 0
e 46 23
e 46 25
e 46 42
e 46 46
e 46 51
e 46 66
e 46 100
e 46 134
e 46 138
e 46 163
e 46 169
e 46 171
e 46 184
e 47 95
e 47 97
e 47 99
e 47 115
e 47 119
e 47 139
e 47 149
e 47 153
e 47 168
e 48 9
e 48 18
e 48 28
e 48 36
e 48 38
e 48 45
e 48 60
e 48 75
e 48 77
e 48 86
e 48 97
e 48 122
e 48 137
e 48 141
e 48 144
e 48 157
e 48 180
e 49 1
e 49 3
e 49 6
e 49 12
e 49 24
e 49 37
e 49 55
e 49 60
e 49 64
e 49 67
e 49 99
e 49 113
e 49 130
e 49 141
e 49 147
e 49 165
e 49 183
e 50 25
e 50 35
e 50 45
e 50 77
e 50 118
e 50 126
e 50 177
e 50 195
e 50 196
e 51 14
e 51 51
e 51 55
e 51 75
e 51 79
e 51 93
e 51 100
e 51 124
e 51 127
e 51 183
e 52 8
e 52 12
e 52 32
e 52 39
e 52 48
e 52 60
e 52 99
e 52 140
e 52 158
e 52 166
e 52 172
e 52 182
e 52 194
e 53 30
e 53 45
e 53 51
e 53 65
e 53 73
e 53 87
e 53 93
e 53 96
e 53 118
e 53 122
e 53 123
e 53 168
e 53 180
e 53 183
e 53 198
e 54 0
e 54 3
e 54 13
e 54 27
e 54 36
e 54 40
e 54 86
e 54 94
e 54 103
e 54 111
e 54 112
e 54 132
e 54 161
e 54 169
e 55 33
e 55 48
e 55 61
e 55 66
e 55 72
e 55 81
e 55 84
e 55 93
e 55 125
e 55 183
e 55 189
e 56 23
e 56 34
e 56 38
e 56 87
e 56 93
e 56 97
e 56 120
e 56 153
e 56 174
e 56 199
e 57 5
e 57 13
e 57 59
e 57 64
e 57 68
e 57 73
e 57 88
e 57 94
e 57 100
e 57 138
e 57 159
e 57 172
e 57 186
e 58 6
e 58 12
e 58 34
e 58 55
e 58 80
e 59 15
e 59 16
e 59 31
e 59 32
e 59 33
e 59 68
e 59 95
e 59 103
e 59 104
e 59 108
e 59 165
e 59 171
e 59 175
e 59 176
e 59 184
e 59 197
e 60 29
e 60 32
e 60 53
e 60 66
e 60 86
e 60 90
e 60 95
e 60 120
e 60 123
e 60 196
e 61 2
e 61 21
e 61 49
e 61 57
e 61 60
e 61 79
e 61 87
e 61 92
e 61 109
e 61 166
e 61 167
e 61 170
e 61 186
e 62 14
e 62 36
e 62 38
e 62 80
e 62 108
e 62 142
e 62 146
e 62 150
e 62 159
e 62 184
e 62 187
e 62 188
e 62 194
e 63 11
e 63 16
e 63 33
e 63 41
e 63 58
e 63 65
e 63 70
e 63 82
e 63 84
e 63 92
e 63 105
e 63 119
e 63 141
e 63 148
e 63 172
e 64 3
e 64 12
e 64 71
e 64 76
e 64 93
e 64 146
e 64 152
e 64 169
e 64 173
e 64 193
e 65 10
e 65 17
e 65 34
e 65 56
e 65 67
e 65 74
e 65 90
e 65 98
e 65 107
e 65 126
e 65 138
e 65 153
e 65 155
e 65 160
e 65 174
e 65 177
e 65 178
e 65 199
e 66 27
e 66 105
e 66 116
e 66 121
e 66 138
e 67 30
e 67 68
e 67 98
e 67 113
e 67 170
e 67 171
e 67 184
e 68 32
e 68 61
e 68 72
e 68 84
e 68 121
e 68 134
e 68 152
e 68 181
e 68 184
e 68 187
e 68 198
e 69 3
e 69 17
e 69 24
e 69 47
e 69 56
e 69 70
e 69 98
e 69 104
e 69 116
e 69 117
e 69 135
e 69 140
e 69 143
e 69 145
e 69 171
e 70 51
e 70 60
e 70 67
e 70 93
e 70 103
e 70 104
e 70 138
e 70 145
e 70 179
e 71 8
e 71 68
e 71 79
e 71 80
e 71 147
e 71 159
e 71 194
e 71 197
e 72 10
e 72 20
e 72 40
e 72 41
e 72 64
e 72 99
e 72 101
e 72 122
e 72 133
e 72 143
e 72 157
e 73 0
e 73 18
e 73 34
e 73 46
e 73 55
e 73 76
e 73 98
e 73 110
e 73 141
e 73 160
e 73 170
e 73 174
e 73 189
e 73 190
e 73 193
e 74 4
e 74 7
e 74 9
e 74 18
e 74 33
e 74 34
e 74 40
e 74 64
e 74 68
e 74 76
e 74 101
e 74 103
e 74 138
e 74 141
e 74 177
e 74 185
e 74 193
e 75 17
e 75 57
e 75 73
e 75 80
e 75 128
e 75 136
e 75 197
e 76 15
e 76 19
e 76 24
e 76 60
e 76 65
e 76 88
e 76 102
e 76 103
e 76 116
e 76 119
e 76 144
e 76 161
e 76 167
e 76 174
e 76 180
e 76 196
e 77 10
e 77 26
e 77 43
e 77 47
e 77 60
e 77 66
e 77 73
e 77 84
e 77 153
e 77 156
e 77 164
e 78 80
e 78 84
e 78 100
e 78 101
e 78 111
e 78 120
e 78 125
e 78 136
e 78 137
e 78 157
e 78 197
e 79 16
e 79 19
e 79 23
e 79 39
e 79 53
e 79 57
e 79 89
e 79 111
e 79 151
e 79 182
e 79 187
e 79 198
e 80 0
e 80 29
e 80 44
e 80 54
e 80 61
e 80 66
e 80 133
e 80 166
e 80 195
e 80 196
e 81 56
e 81 64
e 81 69
e 81 74
e 81 112
e 81 119
e 81 131
e 81 138
e 81 142
e 81 149
e 81 173
e 81 185
e 81 190
e 81 195
e 82 7
e 82 59
e 82 79
e 82 91
e 82 102
e 82 117
e 82 124
e 82 152
e 82 186
e 83 19
e 83 23
e 83 35
e 83 67
e 83 97
e 83 140
e 83 142
e 83 153
e 83 164
e 84 13
e 84 19
e 84 29
e 84 32
e 84 35
e 84 72
e 84 79
e 84 86
e 84 91
e 84 118
e 84 122
e 84 143
e 84 146
e 84 180
e 84 185
e 85 0
e 85 13
e 85 36
e 85 41
e 85 62
e 85 81
e 85 88
e 85 95
e 85 104
e 85 106
e 85 145
e 85 157
e 85 168
e 85 171
e 85 187
e 86 58
e 86 64
e 86 70
e 86 72
e 86 90
e 86 97
e 86 154
e 86 169
e 86 172
e 86 175
e 86 179
e 87 0
e 87 13
e 87 62
e 87 66
e 87 79
e 87 83
e 87 106
e 87 124
e 87 127
e 87 145
e 87 172
e 87 178
e 88 25
e 88 65
e 88 113
e 88 132
e 88 134
e 88 142
e 88 151
e 88 154
e 88 164
e 88 174
e 89 20
e 89 23
e 89 47
e 89 95
e 89 101
e 89 114
e 89 117
e 89 123
e 89 125
e 89 129
e 89 140
e 89 156
e 89 167
e 89 180
e 89 191
e 90 33
e 90 57
e 90 66
e 90 84
e 90 95
e 90 138
e 90 141
e 90 198
e 91 37
e 91 47
e 91 50
e 91 66
e 91 67
e 91 78
e 91 93
e 91 95
e 91 99
e 91 120
e 91 127
e 91 135
e 91 153
e 91 169
e 91 197
e 92 31
e 92 37
e 92 44
e 92 71
e 92 109
e 92 117
e 92 143
e 92 154
e 92 161
e 93 2
e 93 5
e 93 30
e 93 57
e 93 68
e 93 73
e 93 96
e 93 103
e 93 121
e 93 124
e 93 157
e 93 163
e 93 194
e 94 2
e 94 4
e 94 20
e 94 34
e 94 56
e 94 68
e 94 111
e 94 147
e 94 179
e 94 186
e 94 194
e 95 44
e 95 94
e 95 102
e 95 134
e 95 145
e 95 162
e 95 185
e 95 198
e 96 12
e 96 59
e 96 81
e 96 95
e 96 107
e 96 128
e 96 144
e 96 148
e 96 176
e 96 186
e 97 59
e 97 62
e 97 71
e 97 107
e 97 112
e 97 134
e 97 159
e 97 174
e 97 187
e 97 195
e 97 198
e 98 2
e 98 16
e 98 40
e 98 46
e 98 59
e 98 65
e 98 77
e 98 103
e 98 115
e 98 116
e 98 117
e 98 192
e 98 199
e 99 9
e 99 23
e 99 48
e 99 51
e 99 60
e 99 62
e 99 64
e 99 73
e 99 81
e 99 103
e 99 107
e 99 116
e 99 120
e 99 135
e 99 140
e 99 150
e 99 158
e 99 160
e 99 169
e 99 179
e 99 184
e 99 188
e 100 5
e 100 12
e 100 29
e 100 33
e 100 42
e 100 92
e 100 115
e 100 142
e 100 144
e 100 146
e 100 156
e 100 194
e 101 5
e 101 25
e 101 45
e 101 65
e 101 76
e 101 87
e 101 109
e 101 141
e 101 153
e 101 183
e 102 1
e 102 35
e 102 37
e 102 69
e 102 80
e 102 84
e 102 96
e 102 100
e 102 104
e 102 139
e 102 142
e 102 153
e 102 156
e 102 177
e 102 180
e 102 196
e 103 7
e 103 35
e 103 38
e 103 53
e 103 59
e 103 77
e 103 109
e 103 131
e 103 141
e 103 167
e 103 176
e 104 31
e 104 40
e 104 50
e 104 67
e 104 72
e 104 154
e 104 157
e 104 191
e 105 2
e 105 6
e 105 42
e 105 43
e 105 51
e 105 53
e 105 76
e 105 86
e 105 87
e 105 112
e 105 114
e 105 152
e 105 169
e 105 189
e 105 197
e 106 1
e 106 2
e 106 12
e 106 33
e 106 36
e 106 85
e 106 107
e 106 112
e 106 139
e 106 144
e 106 157
e 106 158
e 106 166
e 106 174
e 106 189
e 107 15
e 107 23
e 107 31
e 107 51
e 107 57
e 107 71
e 107 76
e 107 81
e 107 87
e 107 148
e 107 160
e 107 186
e 108 29
e 108 30
e 108 34
e 108 53
e 108 119
e 108 121
e 108 130
e 108 159
e 108 175
e 109 4
e 109 15
e 109 39
e 109 44
e 109 70
e 109 77
e 109 95
e 109 99
e 109 108
e 109 119
e 109 124
e 109 127
e 109 153
e 109 171
e 109 190
e 110 9
e 110 10
e 110 19
e 110 37
e 110 50
e 110 54
e 110 55
e 110 67
e 110 70
e 110 122
e 110 136
e 110 176
e 110 181
e 110 189
e 110 190
e 110 194
e 111 0
e 111 5
e 111 11
e 111 20
e 111 23
e 111 124
e 111 131
e 111 162
e 111 163
e 111 168
e 111 180
e 111 182
e 111 185
e 112 26
e 112 70
e 112 74
e 112 76
e 112 92
e 112 97
e 112 98
e 112 167
e 112 172
e 112 186
e 113 2
e 113 7
e 113 8
e 113 21
e 113 24
e 113 88
e 113 97
e 113 121
e 113 137
e 113 146
e 113 197
e 114 12
e 114 19
e 114 27
e 114 41
e 114 63
e 114 69
e 114 81
e 114 92
e 114 102
e 114 105
e 114 109
e 114 115
e 114 128
e 114 135
e 114 184
e 114 188
e 114 195
e 115 3
e 115 26
e 115 66
e 115 79
e 115 86
e 115 98
e 115 109
e 115 122
e 115 145
e 115 164
e 115 177
e 116 9
e 116 15
e 116 17
e 116 31
e 116 69
e 116 86
e 116 112
e 116 120
e 116 132
e 116 148
e 116 171
e 117 40
e 117 54
e 117 57
e 117 60
e 117 86
e 117 88
e 117 100
e 117 104
e 117 105
e 117 130
e 117 140
e 117 145
e 117 154
e 117 167
e 118 0
e 118 45
e 118 51
e 118 94
e 118 111
e 118 115
e 118 142
e 118 149
e 118 153
e 118 155
e 119 4
e 119 11
e 119 31
e 119 51
e 119 65
e 119 79
e 119 94
e 119 153
e 119 159
e 120 63
e 120 65
e 120 75
e 120 157
e 120 167
e 120 168
e 120 172
e 121 29
e 121 30
e 121 41
e 121 59
e 121 77
e 121 87
e 121 90
e 121 101
e 121 118
e 121 138
e 121 143
e 121 173
e 121 180
e 121 182
e 122 21
e 122 47
e 122 67
e 122 118
e 122 127
e 122 131
e 122 148
e 123 11
e 123 18
e 123 20
e 123 26
e 123 29
e 123 46
e 123 77
e 123 98
e 123 122
e 123 127
e 123 147
e 123 162
e 123 170
e 123 188
e 124 13
e 124 31
e 124 99
e 124 119
e 124 164
e 124 171
e 124 190
e 125 2
e 125 24
e 125 30
e 125 42
e 125 44
e 125 58
e 125 59
e 125 64
e 125 71
e 125 86
e 125 96
e 125 131
e 125 142
e 125 155
e 126 12
e 126 17
e 126 54
e 126 87
e 126 108
e 126 126
e 126 146
e 126 198
e 127 14
e 127 33
e 127 38
e 127 61
e 127 83
e 127 89
e 127 115
e 127 120
e 127 132
e 127 154
e 127 158
e 127 159
e 127 175
e 127 178
e 128 1
e 128 15
e 128 25
e 128 42
e 128 44
e 128 61
e 128 76
e 128 92
e 128 97
e 128 115
e 128 116
e 128 127
e 128 178
e 128 192
e 129 4
e 129 12
e 129 17
e 129 27
e 129 28
e 129 44
e 129 49
e 129 65
e 129 70
e 129 127
e 129 163
e 129 171
e 130 14
e 130 15
e 130 21
e 130 24
e 130 37
e 130 62
e 130 68
e 130 91
e 130 94
e 130 105
e 130 122
e 131 5
e 131 31
e 131 104
e 131 132
e 131 135
e 131 143
e 131 146
e 131 162
e 131 163
e 131 174
e 131 175
e 131 176
e 131 182
e 131 189
e 131 198
e 132 1
e 132 3
e 132 52
e 132 115
e 132 125
e 132 155
e 132 175
e 132 197
e 133 4
e 133 5
e 133 18
e 133 26
e 133 27
e 133 49
e 133 88
e 133 128
e 133 129
e 133 138
e 133 140
e 133 142
e 133 179
e 133 184
e 133 188
e 134 68
e 134 102
e 134 117
e 134 124
e 134 162
e 134 169
e 134 199
e 135 1
e 135 11
e 135 40
e 135 51
e 135 60
e 135 63
e 135 71
e 135 74
e 135 87
e 135 145
e 135 160
e 136 11
e 136 21
e 136 58
e 136 66
e 136 70
e 136 96
e 136 106
e 136 133
e 136 168
e 136 182
e 136 185
e 136 199
e 137 32
e 137 33
e 137 51
e 137 54
e 137 59
e 137 94
e 137 101
e 137 112
e 137 130
e 137 135
e 137 167
e 137 168
e 137 170
e 137 177
e 137 181
e 138 26
e 138 29
e 138 51
e 138 99
e 138 112
e 138 115
e 138 116
e 138 168
e 138 191
e 138 192
e 139 40
e 139 44
e 139 48
e 139 60
e 139 103
e 139 123
e 139 126
e 139 160
e 139 178
e 139 187
e 140 29
e 140 30
e 140 41
e 140 85
e 140 90
e 140 112
e 140 113
e 140 163
e 140 180
e 141 5
e 141 15
e 141 19
e 141 28
e 141 48
e 141 64
e 141 67
e 141 86
e 141 88
e 141 112
e 141 121
e 141 145
e 141 169
e 141 170
e 141 194
e 141 195
e 141 198
e 142 32
e 142 78
e 142 83
e 142 97
e 142 113
e 142 134
e 142 177
e 142 181
e 143 16
e 143 36
e 143 46
e 143 49
e 143 76
e 143 89
e 143 129
e 143 151
e 143 163
e 143 166
e 143 192
e 144 36
e 144 100
e 144 110
e 144 125
e 144 126
e 144 128
e 144 134
e 144 144
e 144 148
e 144 186
e 144 189
e 145 6
e 145 16
e 145 32
e 145 40
e 145 46
e 145 54
e 145 73
e 145 84
e 145 86
e 145 87
e 145 88
e 145 89
e 145 93
e 145 133
e 145 135
e 145 152
e 145 155
e 145 158
e 145 159
e 145 162
e 146 1
e 146 44
e 146 65
e 146 81
e 146 92
e 146 97
e 146 125
e 146 134
e 146 135
e 146 140
e 146 145
e 146 153
e 146 154
e 146 170
e 146 180
e 146 182
e 146 194
e 147 17
e 147 48
e 147 52
e 147 122
e 147 156
e 147 158
e 147 159
e 147 162
e 147 171
e 147 172
e 147 179
e 148 11
e 148 26
e 148 29
e 148 34
e 148 36
e 148 85
e 148 142
e 148 179
e 149 2
e 149 10
e 149 12
e 149 28
e 149 32
e 149 59
e 149 65
e 149 68
e 149 86
e 149 89
e 149 100
e 149 117
e 149 119
e 149 141
e 149 149
e 149 150
e 149 195
e 150 18
e 150 34
e 150 38
e 150 71
e 150 148
e 150 182
e 150 199
e 151 8
e 151 11
e 151 65
e 151 71
e 151 74
e 151 87
e 151 125
e 151 132
e 151 141
e 151 171
e 151 183
e 152 44
e 152 76
e 152 83
e 152 89
e 152 107
e 152 114
e 152 116
e 152 160
e 152 195
e 153 12
e 153 24
e 153 31
e 153 46
e 153 91
e 153 104
e 153 114
e 153 122
e 153 130
e 153 139
e 153 142
e 153 148
e 153 159
e 153 162
e 154 20
e 154 44
e 154 82
e 154 85
e 154 98
e 154 99
e 154 108
e 154 118
e 154 158
e 154 159
e 155 35
e 155 49
e 155 52
e 155 54
e 155 75
e 155 91
e 155 101
e 155 126
e 155 130
e 155 145
e 155 158
e 155 196
e 156 35
e 156 43
e 156 93
e 156 112
e 156 160
e 156 176
e 157 13
e 157 50
e 157 52
e 157 57
e 157 70
e 157 78
e 157 90
e 157 140
e 157 146
e 157 148
e 157 158
e 157 159
e 157 182
e 158 0
e 158 28
e 158 30
e 158 36
e 158 57
e 158 59
e 158 63
e 158 70
e 158 74
e 158 107
e 158 123
e 158 167
e 158 172
e 158 188
e 159 0
e 159 2
e 159 12
e 159 13
e 159 25
e 159 88
e 159 113
e 159 130
e 159 131
e 159 136
e 159 152
e 159 168
e 159 173
e 159 182
e 159 184
e 159 188
e 159 191
e 159 198
e 160 35
e 160 50
e 160 56
e 160 63
e 160 98
e 160 122
e 160 129
e 160 130
e 160 169
e 160 182
e 161 13
e 161 17
e 161 41
e 161 51
e 161 57
e 161 61
e 161 64
e 161 118
e 161 143
e 161 150
e 161 154
e 161 156
e 161 186
e 162 20
e 162 24
e 162 26
e 162 34
e 162 70
e 162 100
e 162 109
e 162 114
e 162 139
e 162 159
e 162 190
e 163 10
e 163 25
e 163 27
e 163 61
e 163 67
e 163 104
e 163 110
e 163 115
e 163 148
e 163 169
e 164 30
e 164 36
e 164 43
e 164 60
e 164 70
e 164 92
e 164 94
e 164 113
e 164 122
e 164 139
e 164 141
e 164 142
e 164 185
e 164 188
e 165 10
e 165 12
e 165 30
e 165 36
e 165 47
e 165 69
e 165 103
e 165 138
e 165 143
e 165 171
e 165 197
e 166 30
e 166 31
e 166 43
e 166 46
e 166 55
e 166 75
e 166 81
e 166 91
e 166 102
e 166 114
e 166 120
e 166 184
e 166 189
e 166 190
e 167 13
e 167 48
e 167 56
e 167 92
e 167 116
e 167 117
e 167 122
e 167 149
e 167 154
e 167 158
e 167 176
e 168 0
e 168 1
e 168 4
e 168 5
e 168 9
e 168 32
e 168 56
e 168 144
e 168 151
e 168 165
e 168 188
e 169 19
e 169 24
e 169 49
e 169 54
e 169 68
e 169 77
e 169 101
e 169 176
e 169 188
e 169 197
e 170 9
e 170 23
e 170 26
e 170 61
e 170 85
e 170 93
e 170 97
e 170 111
e 170 116
e 170 123
e 170 127
e 170 152
e 170 164
e 170 165
e 170 169
e 170 176
e 170 187
e 171 1
e 171 3
e 171 77
e 171 105
e 171 111
e 171 121
e 171 130
e 171 147
e 171 153
e 171 167
e 171 177
e 171 199
e 172 2
e 172 25
e 172 26
e 172 105
e 172 107
e 172 113
e 172 136
e 172 149
e 172 195
e 173 18
e 173 24
e 173 29
e 173 32
e 173 49
e 173 59
e 173 64
e 173 107
e 173 118
e 173 134
e 173 144
e 173 158
e 173 171
e 174 0
e 174 2
e 174 10
e 174 54
e 174 66
e 174 93
e 174 97
e 174 111
e 175 3
e 175 25
e 175 27
e 175 81
e 175 88
e 175 97
e 175 106
e 175 136
e 175 138
e 175 166
e 175 189
e 176 32
e 176 39
e 176 50
e 176 119
e 176 124
e 176 128
e 176 131
e 176 133
e 176 152
e 176 157
e 176 170
e 176 178
e 176 194
e 176 195
e 176 197
e 177 35
e 177 47
e 177 84
e 177 88
e 177 102
e 177 122
e 177 134
e 177 145
e 177 186
e 177 191
e 177 192
e 178 0
e 178 5
e 178 27
e 178 30
e 178 43
e 178 61
e 178 82
e 178 148
e 178 162
e 178 170
e 178 180
e 179 27
e 179 57
e 179 65
e 179 68
e 179 79
e 179 104
e 179 134
e 179 145
e 179 150
e 179 160
e 179 161
e 179 169
e 179 181
e 179 184
e 179 187
e 179 192
e 179 197
e 180 0
e 180 16
e 180 24
e 180 34
e 180 35
e 180 37
e 180 53
e 180 82
e 180 86
e 180 107
e 180 110
e 180 142
e 180 169
e 180 181
e 180 196
e 181 20
e 181 27
e 181 36
e 181 67
e 181 80
e 181 91
e 181 99
e 181 102
e 181 139
e 181 141
e 181 143
e 181 150
e 181 182
e 181 193
e 181 196
e 182 0
e 182 8
e 182 12
e 182 15
e 182 26
e 182 27
e 182 34
e 182 56
e 182 85
e 182 119
e 182 127
e 182 130
e 182 138
e 182 176
e 182 179
e 182 187
e 183 22
e 183 29
e 183 40
e 183 51
e 183 53
e 183 75
e 183 137
e 183 148
e 183 156
e 183 172
e 183 195
e 184 10
e 184 30
e 184 33
e 184 37
e 184 54
e 184 58
e 184 98
e 184 144
e 184 155
e 184 165
e 184 169
e 184 173
e 184 174
e 185 20
e 185 24
e 185 26
e 185 32
e 185 38
e 185 40
e 185 54
e 185 62
e 185 70
e 185 73
e 185 83
e 185 91
e 185 134
e 185 143
e 185 151
e 185 158
e 185 161
e 185 166
e 185 169
e 185 185
e 185 187
e 185 199
e 186 21
e 186 24
e 186 47
e 186 65
e 186 70
e 186 73
e 186 81
e 186 86
e 186 102
e 186 104
e 186 110
e 186 121
e 186 132
e 186 146
e 186 153
e 186 172
e 186 196
e 187 1
e 187 4
e 187 7
e 187 14
e 187 38
e 187 73
e 187 79
e 187 112
e 187 124
e 187 147
e 188 1
e 188 14
e 188 29
e 188 34
e 188 41
e 188 43
e 188 60
e 188 65
e 188 66
e 188 107
e 188 109
e 188 185
e 188 190
e 189 7
e 189 15
e 189 36
e 189 63
e 189 64
e 189 77
e 189 89
e 189 93
e 189 95
e 189 133
e 189 134
e 189 150
e 189 162
e 189 178
e 189 191
e 190 6
e 190 11
e 190 33
e 190 54
e 190 58
e 190 75
e 190 80
e 190 82
e 190 121
e 190 141
e 190 146
e 190 152
e 190 159
e 190 187
e 190 190
e 191 13
e 191 19
e 191 45
e 191 78
e 191 93
e 191 96
e 191 129
e 191 138
e 191 140
e 191 162
e 191 171
e 192 9
e 192 73
e 192 89
e 192 128
e 192 149
e 192 157
e 193 4
e 193 13
e 193 24
e 193 25
e 193 35
e 193 58
e 193 69
e 193 115
e 193 143
e 193 176
e 193 181
e 193 192
e 194 8
e 194 15
e 194 19
e 194 25
e 194 41
e 194 75
e 194 100
e 194 119
e 194 123
e 194 172
e 194 182
e 194 197
e 195 2
e 195 9
e 195 54
e 195 77
e 195 79
e 195 82
e 195 96
e 195 97
e 195 98
e 195 133
e 195 139
e 195 143
e 195 152
e 195 154
e 195 179
e 195 185
e 196 2
e 196 11
e 196 34
e 196 39
e 196 77
e 196 85
e 196 90
e 196 106
e 196 119
e 196 128
e 196 129
e 196 131
e 196 144
e 196 166
e 196 174
e 196 185
e 196 195
e 197 36
e 197 43
e 197 70
e 197 100
e 197 118
e 197 119
e 197 161
e 197 197
e 197 198
e 198 25
e 198 26
e 198 45
e 198 52
e 198 59
e 198 82
e 198 88
e 198 99
e 198 109
e 198 116
e 198 139
e 198 149
e 198 152
e 198 162
e 199 3
e 199 36
e 199 45
e 199 89
e 199 130
e 199 133
e 199 139
e 199 150
e 199 172
e 199 191
e 199 196